K-Spacing Value to Generate K-Mesh: 0.030
0
Gamma
8    8    8
0.0  0.0  0.0
