begin projections
random
end projections

# This part was generated automatically by VASP
num_bands = 48
num_wann = 48
use_bloch_phases = .false.
begin unit_cell_cart
     5.6775257     0.0000000     0.0000000
     0.0000000     5.6775257     0.0000000
     0.0000000     0.0000000     5.6775257
end unit_cell_cart
begin atoms_cart
Ga       0.0000000     0.0000000     0.0000000
Ga       0.0000000     2.8387629     2.8387629
Ga       2.8387629     0.0000000     2.8387629
Ga       2.8387629     2.8387629     0.0000000
As       1.4193814     4.2581443     4.2581443
As       1.4193814     1.4193814     1.4193814
As       4.2581443     4.2581443     1.4193814
As       4.2581443     1.4193814     4.2581443
end atoms_cart
mp_grid =     8     8     8
begin kpoints
      0.000000000000      0.000000000000      0.000000000000
      0.125000000000      0.000000000000      0.000000000000
      0.250000000000      0.000000000000      0.000000000000
      0.375000000000      0.000000000000      0.000000000000
      0.500000000000      0.000000000000      0.000000000000
      0.125000000000      0.125000000000      0.000000000000
      0.250000000000      0.125000000000      0.000000000000
      0.375000000000      0.125000000000      0.000000000000
      0.500000000000      0.125000000000      0.000000000000
      0.250000000000      0.250000000000      0.000000000000
      0.375000000000      0.250000000000      0.000000000000
      0.500000000000      0.250000000000      0.000000000000
      0.375000000000      0.375000000000      0.000000000000
      0.500000000000      0.375000000000      0.000000000000
      0.500000000000      0.500000000000      0.000000000000
      0.125000000000      0.125000000000      0.125000000000
      0.250000000000      0.125000000000      0.125000000000
      0.375000000000      0.125000000000      0.125000000000
      0.500000000000      0.125000000000      0.125000000000
      0.250000000000      0.250000000000      0.125000000000
      0.375000000000      0.250000000000      0.125000000000
      0.500000000000      0.250000000000      0.125000000000
      0.375000000000      0.375000000000      0.125000000000
      0.500000000000      0.375000000000      0.125000000000
      0.500000000000      0.500000000000      0.125000000000
      0.250000000000      0.250000000000      0.250000000000
      0.375000000000      0.250000000000      0.250000000000
      0.500000000000      0.250000000000      0.250000000000
      0.375000000000      0.375000000000      0.250000000000
      0.500000000000      0.375000000000      0.250000000000
      0.500000000000      0.500000000000      0.250000000000
      0.375000000000      0.375000000000      0.375000000000
      0.500000000000      0.375000000000      0.375000000000
      0.500000000000      0.500000000000      0.375000000000
      0.500000000000      0.500000000000      0.500000000000
      0.000000000000      0.125000000000      0.000000000000
      0.000000000000      0.000000000000      0.125000000000
      0.000000000000     -0.125000000000      0.000000000000
      0.000000000000     -0.000000000000     -0.125000000000
     -0.125000000000     -0.000000000000      0.000000000000
      0.000000000000      0.250000000000      0.000000000000
      0.000000000000      0.000000000000      0.250000000000
      0.000000000000     -0.250000000000      0.000000000000
      0.000000000000     -0.000000000000     -0.250000000000
     -0.250000000000     -0.000000000000      0.000000000000
      0.000000000000      0.375000000000      0.000000000000
      0.000000000000      0.000000000000      0.375000000000
      0.000000000000     -0.375000000000      0.000000000000
      0.000000000000     -0.000000000000     -0.375000000000
     -0.375000000000     -0.000000000000      0.000000000000
      0.000000000000      0.500000000000      0.000000000000
      0.000000000000      0.000000000000      0.500000000000
      0.000000000000      0.125000000000      0.125000000000
      0.125000000000      0.000000000000      0.125000000000
      0.125000000000     -0.125000000000      0.000000000000
      0.125000000000      0.000000000000     -0.125000000000
      0.000000000000     -0.125000000000     -0.125000000000
     -0.125000000000     -0.125000000000      0.000000000000
      0.000000000000     -0.125000000000      0.125000000000
     -0.125000000000      0.000000000000      0.125000000000
     -0.125000000000      0.125000000000      0.000000000000
     -0.125000000000      0.000000000000     -0.125000000000
      0.000000000000      0.125000000000     -0.125000000000
      0.000000000000      0.250000000000      0.125000000000
      0.125000000000      0.000000000000      0.250000000000
      0.125000000000     -0.250000000000      0.000000000000
      0.250000000000      0.000000000000     -0.125000000000
      0.000000000000     -0.125000000000     -0.250000000000
     -0.250000000000     -0.125000000000      0.000000000000
      0.000000000000     -0.250000000000      0.125000000000
     -0.125000000000      0.000000000000      0.250000000000
     -0.125000000000      0.250000000000      0.000000000000
     -0.250000000000      0.000000000000     -0.125000000000
      0.000000000000      0.125000000000     -0.250000000000
      0.000000000000     -0.250000000000     -0.125000000000
      0.125000000000      0.000000000000     -0.250000000000
      0.250000000000     -0.125000000000      0.000000000000
      0.000000000000     -0.125000000000      0.250000000000
     -0.125000000000     -0.250000000000      0.000000000000
     -0.250000000000      0.000000000000      0.125000000000
     -0.125000000000      0.000000000000     -0.250000000000
     -0.250000000000      0.125000000000      0.000000000000
      0.000000000000      0.250000000000     -0.125000000000
      0.250000000000      0.000000000000      0.125000000000
      0.125000000000      0.250000000000      0.000000000000
      0.000000000000      0.125000000000      0.250000000000
      0.000000000000      0.375000000000      0.125000000000
      0.125000000000      0.000000000000      0.375000000000
      0.125000000000     -0.375000000000      0.000000000000
      0.375000000000      0.000000000000     -0.125000000000
      0.000000000000     -0.125000000000     -0.375000000000
     -0.375000000000     -0.125000000000      0.000000000000
      0.000000000000     -0.375000000000      0.125000000000
     -0.125000000000      0.000000000000      0.375000000000
     -0.125000000000      0.375000000000      0.000000000000
     -0.375000000000      0.000000000000     -0.125000000000
      0.000000000000      0.125000000000     -0.375000000000
      0.000000000000     -0.375000000000     -0.125000000000
      0.125000000000      0.000000000000     -0.375000000000
      0.375000000000     -0.125000000000      0.000000000000
      0.000000000000     -0.125000000000      0.375000000000
     -0.125000000000     -0.375000000000      0.000000000000
     -0.375000000000      0.000000000000      0.125000000000
     -0.125000000000      0.000000000000     -0.375000000000
     -0.375000000000      0.125000000000      0.000000000000
      0.000000000000      0.375000000000     -0.125000000000
      0.375000000000      0.000000000000      0.125000000000
      0.125000000000      0.375000000000      0.000000000000
      0.000000000000      0.125000000000      0.375000000000
      0.000000000000      0.500000000000      0.125000000000
      0.125000000000      0.000000000000      0.500000000000
      0.125000000000     -0.500000000000      0.000000000000
      0.500000000000      0.000000000000     -0.125000000000
      0.000000000000     -0.125000000000     -0.500000000000
     -0.500000000000     -0.125000000000      0.000000000000
     -0.125000000000      0.000000000000      0.500000000000
     -0.125000000000      0.500000000000      0.000000000000
      0.000000000000      0.125000000000     -0.500000000000
      0.000000000000     -0.500000000000     -0.125000000000
     -0.500000000000      0.000000000000      0.125000000000
      0.000000000000      0.250000000000      0.250000000000
      0.250000000000      0.000000000000      0.250000000000
      0.250000000000     -0.250000000000      0.000000000000
      0.250000000000      0.000000000000     -0.250000000000
      0.000000000000     -0.250000000000     -0.250000000000
     -0.250000000000     -0.250000000000      0.000000000000
      0.000000000000     -0.250000000000      0.250000000000
     -0.250000000000      0.000000000000      0.250000000000
     -0.250000000000      0.250000000000      0.000000000000
     -0.250000000000      0.000000000000     -0.250000000000
      0.000000000000      0.250000000000     -0.250000000000
      0.000000000000      0.375000000000      0.250000000000
      0.250000000000      0.000000000000      0.375000000000
      0.250000000000     -0.375000000000      0.000000000000
      0.375000000000      0.000000000000     -0.250000000000
      0.000000000000     -0.250000000000     -0.375000000000
     -0.375000000000     -0.250000000000      0.000000000000
      0.000000000000     -0.375000000000      0.250000000000
     -0.250000000000      0.000000000000      0.375000000000
     -0.250000000000      0.375000000000      0.000000000000
     -0.375000000000      0.000000000000     -0.250000000000
      0.000000000000      0.250000000000     -0.375000000000
      0.000000000000     -0.375000000000     -0.250000000000
      0.250000000000      0.000000000000     -0.375000000000
      0.375000000000     -0.250000000000      0.000000000000
      0.000000000000     -0.250000000000      0.375000000000
     -0.250000000000     -0.375000000000      0.000000000000
     -0.375000000000      0.000000000000      0.250000000000
     -0.250000000000      0.000000000000     -0.375000000000
     -0.375000000000      0.250000000000      0.000000000000
      0.000000000000      0.375000000000     -0.250000000000
      0.375000000000      0.000000000000      0.250000000000
      0.250000000000      0.375000000000      0.000000000000
      0.000000000000      0.250000000000      0.375000000000
      0.000000000000      0.500000000000      0.250000000000
      0.250000000000      0.000000000000      0.500000000000
      0.250000000000     -0.500000000000      0.000000000000
      0.500000000000      0.000000000000     -0.250000000000
      0.000000000000     -0.250000000000     -0.500000000000
     -0.500000000000     -0.250000000000      0.000000000000
     -0.250000000000      0.000000000000      0.500000000000
     -0.250000000000      0.500000000000      0.000000000000
      0.000000000000      0.250000000000     -0.500000000000
      0.000000000000     -0.500000000000     -0.250000000000
     -0.500000000000      0.000000000000      0.250000000000
      0.000000000000      0.375000000000      0.375000000000
      0.375000000000      0.000000000000      0.375000000000
      0.375000000000     -0.375000000000      0.000000000000
      0.375000000000      0.000000000000     -0.375000000000
      0.000000000000     -0.375000000000     -0.375000000000
     -0.375000000000     -0.375000000000      0.000000000000
      0.000000000000     -0.375000000000      0.375000000000
     -0.375000000000      0.000000000000      0.375000000000
     -0.375000000000      0.375000000000      0.000000000000
     -0.375000000000      0.000000000000     -0.375000000000
      0.000000000000      0.375000000000     -0.375000000000
      0.000000000000      0.500000000000      0.375000000000
      0.375000000000      0.000000000000      0.500000000000
      0.375000000000     -0.500000000000      0.000000000000
      0.500000000000      0.000000000000     -0.375000000000
      0.000000000000     -0.375000000000     -0.500000000000
     -0.500000000000     -0.375000000000      0.000000000000
     -0.375000000000      0.000000000000      0.500000000000
     -0.375000000000      0.500000000000      0.000000000000
      0.000000000000      0.375000000000     -0.500000000000
      0.000000000000     -0.500000000000     -0.375000000000
     -0.500000000000      0.000000000000      0.375000000000
      0.000000000000      0.500000000000      0.500000000000
      0.500000000000      0.000000000000      0.500000000000
      0.125000000000     -0.125000000000     -0.125000000000
     -0.125000000000     -0.125000000000      0.125000000000
     -0.125000000000      0.125000000000     -0.125000000000
      0.125000000000      0.250000000000      0.125000000000
      0.125000000000      0.125000000000      0.250000000000
      0.125000000000     -0.250000000000     -0.125000000000
      0.250000000000     -0.125000000000     -0.125000000000
      0.125000000000     -0.125000000000     -0.250000000000
     -0.250000000000     -0.125000000000      0.125000000000
     -0.125000000000     -0.250000000000      0.125000000000
     -0.125000000000     -0.125000000000      0.250000000000
     -0.125000000000      0.250000000000     -0.125000000000
     -0.250000000000      0.125000000000     -0.125000000000
     -0.125000000000      0.125000000000     -0.250000000000
      0.125000000000      0.375000000000      0.125000000000
      0.125000000000      0.125000000000      0.375000000000
      0.125000000000     -0.375000000000     -0.125000000000
      0.375000000000     -0.125000000000     -0.125000000000
      0.125000000000     -0.125000000000     -0.375000000000
     -0.375000000000     -0.125000000000      0.125000000000
     -0.125000000000     -0.375000000000      0.125000000000
     -0.125000000000     -0.125000000000      0.375000000000
     -0.125000000000      0.375000000000     -0.125000000000
     -0.375000000000      0.125000000000     -0.125000000000
     -0.125000000000      0.125000000000     -0.375000000000
      0.125000000000      0.500000000000      0.125000000000
      0.125000000000      0.125000000000      0.500000000000
      0.125000000000     -0.500000000000     -0.125000000000
      0.500000000000     -0.125000000000     -0.125000000000
      0.125000000000     -0.125000000000     -0.500000000000
     -0.500000000000     -0.125000000000      0.125000000000
     -0.125000000000     -0.500000000000      0.125000000000
     -0.125000000000     -0.125000000000      0.500000000000
     -0.125000000000      0.500000000000     -0.125000000000
     -0.500000000000      0.125000000000     -0.125000000000
     -0.125000000000      0.125000000000     -0.500000000000
      0.125000000000      0.250000000000      0.250000000000
      0.250000000000      0.125000000000      0.250000000000
      0.250000000000     -0.250000000000     -0.125000000000
      0.250000000000     -0.125000000000     -0.250000000000
      0.125000000000     -0.250000000000     -0.250000000000
     -0.250000000000     -0.250000000000      0.125000000000
     -0.125000000000     -0.250000000000      0.250000000000
     -0.250000000000     -0.125000000000      0.250000000000
     -0.250000000000      0.250000000000     -0.125000000000
     -0.250000000000      0.125000000000     -0.250000000000
     -0.125000000000      0.250000000000     -0.250000000000
      0.125000000000      0.375000000000      0.250000000000
      0.250000000000      0.125000000000      0.375000000000
      0.250000000000     -0.375000000000     -0.125000000000
      0.375000000000     -0.125000000000     -0.250000000000
      0.125000000000     -0.250000000000     -0.375000000000
     -0.375000000000     -0.250000000000      0.125000000000
     -0.125000000000     -0.375000000000      0.250000000000
     -0.250000000000     -0.125000000000      0.375000000000
     -0.250000000000      0.375000000000     -0.125000000000
     -0.375000000000      0.125000000000     -0.250000000000
     -0.125000000000      0.250000000000     -0.375000000000
      0.125000000000     -0.375000000000     -0.250000000000
      0.250000000000     -0.125000000000     -0.375000000000
      0.375000000000     -0.250000000000     -0.125000000000
     -0.125000000000     -0.250000000000      0.375000000000
     -0.250000000000     -0.375000000000      0.125000000000
     -0.375000000000     -0.125000000000      0.250000000000
     -0.250000000000      0.125000000000     -0.375000000000
     -0.375000000000      0.250000000000     -0.125000000000
     -0.125000000000      0.375000000000     -0.250000000000
      0.375000000000      0.125000000000      0.250000000000
      0.250000000000      0.375000000000      0.125000000000
      0.125000000000      0.250000000000      0.375000000000
      0.125000000000      0.500000000000      0.250000000000
      0.250000000000      0.125000000000      0.500000000000
      0.250000000000     -0.500000000000     -0.125000000000
      0.500000000000     -0.125000000000     -0.250000000000
      0.125000000000     -0.250000000000     -0.500000000000
     -0.500000000000     -0.250000000000      0.125000000000
     -0.125000000000     -0.500000000000      0.250000000000
     -0.250000000000     -0.125000000000      0.500000000000
     -0.250000000000      0.500000000000     -0.125000000000
     -0.500000000000      0.125000000000     -0.250000000000
     -0.125000000000      0.250000000000     -0.500000000000
      0.125000000000     -0.500000000000     -0.250000000000
      0.250000000000     -0.125000000000     -0.500000000000
      0.500000000000     -0.250000000000     -0.125000000000
     -0.125000000000     -0.250000000000      0.500000000000
     -0.250000000000     -0.500000000000      0.125000000000
     -0.500000000000     -0.125000000000      0.250000000000
     -0.250000000000      0.125000000000     -0.500000000000
     -0.500000000000      0.250000000000     -0.125000000000
     -0.125000000000      0.500000000000     -0.250000000000
      0.500000000000      0.125000000000      0.250000000000
      0.250000000000      0.500000000000      0.125000000000
      0.125000000000      0.250000000000      0.500000000000
      0.125000000000      0.375000000000      0.375000000000
      0.375000000000      0.125000000000      0.375000000000
      0.375000000000     -0.375000000000     -0.125000000000
      0.375000000000     -0.125000000000     -0.375000000000
      0.125000000000     -0.375000000000     -0.375000000000
     -0.375000000000     -0.375000000000      0.125000000000
     -0.125000000000     -0.375000000000      0.375000000000
     -0.375000000000     -0.125000000000      0.375000000000
     -0.375000000000      0.375000000000     -0.125000000000
     -0.375000000000      0.125000000000     -0.375000000000
     -0.125000000000      0.375000000000     -0.375000000000
      0.125000000000      0.500000000000      0.375000000000
      0.375000000000      0.125000000000      0.500000000000
      0.375000000000     -0.500000000000     -0.125000000000
      0.500000000000     -0.125000000000     -0.375000000000
      0.125000000000     -0.375000000000     -0.500000000000
     -0.500000000000     -0.375000000000      0.125000000000
     -0.125000000000     -0.500000000000      0.375000000000
     -0.375000000000     -0.125000000000      0.500000000000
     -0.375000000000      0.500000000000     -0.125000000000
     -0.500000000000      0.125000000000     -0.375000000000
     -0.125000000000      0.375000000000     -0.500000000000
      0.125000000000     -0.500000000000     -0.375000000000
      0.375000000000     -0.125000000000     -0.500000000000
      0.500000000000     -0.375000000000     -0.125000000000
     -0.125000000000     -0.375000000000      0.500000000000
     -0.375000000000     -0.500000000000      0.125000000000
     -0.500000000000     -0.125000000000      0.375000000000
     -0.375000000000      0.125000000000     -0.500000000000
     -0.500000000000      0.375000000000     -0.125000000000
     -0.125000000000      0.500000000000     -0.375000000000
      0.500000000000      0.125000000000      0.375000000000
      0.375000000000      0.500000000000      0.125000000000
      0.125000000000      0.375000000000      0.500000000000
      0.125000000000      0.500000000000      0.500000000000
      0.500000000000      0.125000000000      0.500000000000
      0.500000000000     -0.500000000000     -0.125000000000
      0.500000000000     -0.125000000000     -0.500000000000
     -0.125000000000     -0.500000000000      0.500000000000
      0.250000000000     -0.250000000000     -0.250000000000
     -0.250000000000     -0.250000000000      0.250000000000
     -0.250000000000      0.250000000000     -0.250000000000
      0.250000000000      0.375000000000      0.250000000000
      0.250000000000      0.250000000000      0.375000000000
      0.250000000000     -0.375000000000     -0.250000000000
      0.375000000000     -0.250000000000     -0.250000000000
      0.250000000000     -0.250000000000     -0.375000000000
     -0.375000000000     -0.250000000000      0.250000000000
     -0.250000000000     -0.375000000000      0.250000000000
     -0.250000000000     -0.250000000000      0.375000000000
     -0.250000000000      0.375000000000     -0.250000000000
     -0.375000000000      0.250000000000     -0.250000000000
     -0.250000000000      0.250000000000     -0.375000000000
      0.250000000000      0.500000000000      0.250000000000
      0.250000000000      0.250000000000      0.500000000000
      0.250000000000     -0.500000000000     -0.250000000000
      0.500000000000     -0.250000000000     -0.250000000000
      0.250000000000     -0.250000000000     -0.500000000000
     -0.500000000000     -0.250000000000      0.250000000000
     -0.250000000000     -0.500000000000      0.250000000000
     -0.250000000000     -0.250000000000      0.500000000000
     -0.250000000000      0.500000000000     -0.250000000000
     -0.500000000000      0.250000000000     -0.250000000000
     -0.250000000000      0.250000000000     -0.500000000000
      0.250000000000      0.375000000000      0.375000000000
      0.375000000000      0.250000000000      0.375000000000
      0.375000000000     -0.375000000000     -0.250000000000
      0.375000000000     -0.250000000000     -0.375000000000
      0.250000000000     -0.375000000000     -0.375000000000
     -0.375000000000     -0.375000000000      0.250000000000
     -0.250000000000     -0.375000000000      0.375000000000
     -0.375000000000     -0.250000000000      0.375000000000
     -0.375000000000      0.375000000000     -0.250000000000
     -0.375000000000      0.250000000000     -0.375000000000
     -0.250000000000      0.375000000000     -0.375000000000
      0.250000000000      0.500000000000      0.375000000000
      0.375000000000      0.250000000000      0.500000000000
      0.375000000000     -0.500000000000     -0.250000000000
      0.500000000000     -0.250000000000     -0.375000000000
      0.250000000000     -0.375000000000     -0.500000000000
     -0.500000000000     -0.375000000000      0.250000000000
     -0.250000000000     -0.500000000000      0.375000000000
     -0.375000000000     -0.250000000000      0.500000000000
     -0.375000000000      0.500000000000     -0.250000000000
     -0.500000000000      0.250000000000     -0.375000000000
     -0.250000000000      0.375000000000     -0.500000000000
      0.250000000000     -0.500000000000     -0.375000000000
      0.375000000000     -0.250000000000     -0.500000000000
      0.500000000000     -0.375000000000     -0.250000000000
     -0.250000000000     -0.375000000000      0.500000000000
     -0.375000000000     -0.500000000000      0.250000000000
     -0.500000000000     -0.250000000000      0.375000000000
     -0.375000000000      0.250000000000     -0.500000000000
     -0.500000000000      0.375000000000     -0.250000000000
     -0.250000000000      0.500000000000     -0.375000000000
      0.500000000000      0.250000000000      0.375000000000
      0.375000000000      0.500000000000      0.250000000000
      0.250000000000      0.375000000000      0.500000000000
      0.250000000000      0.500000000000      0.500000000000
      0.500000000000      0.250000000000      0.500000000000
      0.500000000000     -0.500000000000     -0.250000000000
      0.500000000000     -0.250000000000     -0.500000000000
     -0.250000000000     -0.500000000000      0.500000000000
      0.375000000000     -0.375000000000     -0.375000000000
     -0.375000000000     -0.375000000000      0.375000000000
     -0.375000000000      0.375000000000     -0.375000000000
      0.375000000000      0.500000000000      0.375000000000
      0.375000000000      0.375000000000      0.500000000000
      0.375000000000     -0.500000000000     -0.375000000000
      0.500000000000     -0.375000000000     -0.375000000000
      0.375000000000     -0.375000000000     -0.500000000000
     -0.500000000000     -0.375000000000      0.375000000000
     -0.375000000000     -0.500000000000      0.375000000000
     -0.375000000000     -0.375000000000      0.500000000000
     -0.375000000000      0.500000000000     -0.375000000000
     -0.500000000000      0.375000000000     -0.375000000000
     -0.375000000000      0.375000000000     -0.500000000000
      0.375000000000      0.500000000000      0.500000000000
      0.500000000000      0.375000000000      0.500000000000
      0.500000000000     -0.500000000000     -0.375000000000
      0.500000000000     -0.375000000000     -0.500000000000
     -0.375000000000     -0.500000000000      0.500000000000
     -0.125000000000     -0.125000000000     -0.125000000000
     -0.125000000000      0.125000000000      0.125000000000
      0.125000000000      0.125000000000     -0.125000000000
      0.125000000000     -0.125000000000      0.125000000000
     -0.250000000000     -0.125000000000     -0.125000000000
     -0.125000000000     -0.250000000000     -0.125000000000
     -0.125000000000     -0.125000000000     -0.250000000000
     -0.125000000000      0.250000000000      0.125000000000
     -0.250000000000      0.125000000000      0.125000000000
     -0.125000000000      0.125000000000      0.250000000000
      0.250000000000      0.125000000000     -0.125000000000
      0.125000000000      0.250000000000     -0.125000000000
      0.125000000000      0.125000000000     -0.250000000000
      0.125000000000     -0.250000000000      0.125000000000
      0.250000000000     -0.125000000000      0.125000000000
      0.125000000000     -0.125000000000      0.250000000000
     -0.375000000000     -0.125000000000     -0.125000000000
     -0.125000000000     -0.375000000000     -0.125000000000
     -0.125000000000     -0.125000000000     -0.375000000000
     -0.125000000000      0.375000000000      0.125000000000
     -0.375000000000      0.125000000000      0.125000000000
     -0.125000000000      0.125000000000      0.375000000000
      0.375000000000      0.125000000000     -0.125000000000
      0.125000000000      0.375000000000     -0.125000000000
      0.125000000000      0.125000000000     -0.375000000000
      0.125000000000     -0.375000000000      0.125000000000
      0.375000000000     -0.125000000000      0.125000000000
      0.125000000000     -0.125000000000      0.375000000000
     -0.250000000000     -0.250000000000     -0.125000000000
     -0.125000000000     -0.250000000000     -0.250000000000
     -0.250000000000     -0.125000000000     -0.250000000000
     -0.250000000000      0.250000000000      0.125000000000
     -0.250000000000      0.125000000000      0.250000000000
     -0.125000000000      0.250000000000      0.250000000000
      0.250000000000      0.250000000000     -0.125000000000
      0.125000000000      0.250000000000     -0.250000000000
      0.250000000000      0.125000000000     -0.250000000000
      0.250000000000     -0.250000000000      0.125000000000
      0.250000000000     -0.125000000000      0.250000000000
      0.125000000000     -0.250000000000      0.250000000000
     -0.375000000000     -0.250000000000     -0.125000000000
     -0.125000000000     -0.375000000000     -0.250000000000
     -0.250000000000     -0.125000000000     -0.375000000000
     -0.250000000000      0.375000000000      0.125000000000
     -0.375000000000      0.125000000000      0.250000000000
     -0.125000000000      0.250000000000      0.375000000000
      0.375000000000      0.250000000000     -0.125000000000
      0.125000000000      0.375000000000     -0.250000000000
      0.250000000000      0.125000000000     -0.375000000000
      0.250000000000     -0.375000000000      0.125000000000
      0.375000000000     -0.125000000000      0.250000000000
      0.125000000000     -0.250000000000      0.375000000000
     -0.125000000000      0.375000000000      0.250000000000
     -0.250000000000      0.125000000000      0.375000000000
     -0.375000000000      0.250000000000      0.125000000000
      0.125000000000      0.250000000000     -0.375000000000
      0.250000000000      0.375000000000     -0.125000000000
      0.375000000000      0.125000000000     -0.250000000000
      0.250000000000     -0.125000000000      0.375000000000
      0.375000000000     -0.250000000000      0.125000000000
      0.125000000000     -0.375000000000      0.250000000000
     -0.375000000000     -0.125000000000     -0.250000000000
     -0.250000000000     -0.375000000000     -0.125000000000
     -0.125000000000     -0.250000000000     -0.375000000000
     -0.375000000000     -0.375000000000     -0.125000000000
     -0.125000000000     -0.375000000000     -0.375000000000
     -0.375000000000     -0.125000000000     -0.375000000000
     -0.375000000000      0.375000000000      0.125000000000
     -0.375000000000      0.125000000000      0.375000000000
     -0.125000000000      0.375000000000      0.375000000000
      0.375000000000      0.375000000000     -0.125000000000
      0.125000000000      0.375000000000     -0.375000000000
      0.375000000000      0.125000000000     -0.375000000000
      0.375000000000     -0.375000000000      0.125000000000
      0.375000000000     -0.125000000000      0.375000000000