ISTART = 0        # 0-new, 1-continuation, 2-seldom used
ICHARG = 2         # if ISTART=0,ICHARG=2:take superposition of atomic charge densitiey;  ICHARG=1,continue
ALGO = Normal
EDIFFG = -1E-2
ENCUT = 500
IBRION = -1
ISIF = 2
ISYM = -1
ISMEAR = 0
ISPIN = 1
LWAVE = True
LCHARG = True
LOPTICS = True
NELM = 60
NSW = 0
NBANDS = 56
PREC = Accurate
SIGMA = 0.05
NEDOS = 500
LORBIT = 11
NELMIN = 2
LHFCALC = True
HFSCREEN = 0.2
AEXX = 0.28
PRECFOCK = F
#LSORBIT = True
#SAXIS = 0 0 1
LREAL = False
KPAR = 4
#NPAR = 2
