K-Spacing Value to Generate K-Mesh: 0.030
0
Gamma
10    10    10
0.0  0.0  0.0
